
Gurobi 11.0.1 (win64) logging started Thu Mar 14 16:21:12 2024

Set parameter LogFile to value "res/logfile/supportcase33log.txt"
Gurobi Optimizer version 11.0.1 build v11.0.1rc0 (win64 - Windows 11.0 (22621.2))

CPU model: AMD Ryzen Threadripper PRO 5975WX 32-Cores, instruction set [SSE2|AVX|AVX2]
Thread count: 32 physical cores, 64 logical processors, using up to 10 threads

Optimize a model with 20869 rows, 20203 columns and 253158 nonzeros
Model fingerprint: 0x15e5e344
Variable types: 0 continuous, 20203 integer (20095 binary)
Coefficient statistics:
  Matrix range     [1e+00, 1e+06]
  Objective range  [1e+01, 5e+01]
  Bounds range     [1e+00, 5e+02]
  RHS range        [1e+00, 1e+06]
Found heuristic solution: objective 0.0000000
Presolve removed 18475 rows and 13893 columns
Presolve time: 0.51s
Presolved: 2394 rows, 6310 columns, 37026 nonzeros
Crushed 74 out of 426 user cuts to presolved model
Variable types: 0 continuous, 6310 integer (6230 binary)
Found heuristic solution: objective -20.0000000

Root relaxation: objective -4.650000e+02, 1659 iterations, 0.06 seconds (0.11 work units)

    Nodes    |    Current Node    |     Objective Bounds      |     Work
 Expl Unexpl |  Obj  Depth IntInf | Incumbent    BestBd   Gap | It/Node Time

     0     0 -465.00000    0  108  -20.00000 -465.00000  2225%     -    0s
     0     0 -463.73141    0  124  -20.00000 -463.73141  2219%     -    0s
H    0     0                    -185.0000000 -463.73141   151%     -    1s
     0     0 -462.84252    0  117 -185.00000 -462.84252   150%     -    1s
     0     0 -458.25451    0  121 -185.00000 -458.25451   148%     -    2s
H    0     0                    -235.0000000 -458.25451  95.0%     -    2s
     0     0 -448.31447    0  104 -235.00000 -448.31447  90.8%     -    2s
H    0     0                    -255.0000000 -446.27500  75.0%     -    2s
H    0     0                    -285.0000000 -441.28352  54.8%     -    2s
     0     0 -441.28352    0  115 -285.00000 -441.28352  54.8%     -    2s
     0     0 -441.28352    0  107 -285.00000 -441.28352  54.8%     -    2s
     0     0 -430.00000    0  113 -285.00000 -430.00000  50.9%     -    2s
     0     0 -430.00000    0  113 -285.00000 -430.00000  50.9%     -    2s
     0     0 -430.00000    0   88 -285.00000 -430.00000  50.9%     -    2s
     0     0 -429.89624    0   93 -285.00000 -429.89624  50.8%     -    2s
     0     0 -429.85185    0   92 -285.00000 -429.85185  50.8%     -    2s
     0     0 -429.36068    0   97 -285.00000 -429.36068  50.7%     -    2s
     0     0 -429.36068    0  102 -285.00000 -429.36068  50.7%     -    2s
     0     0 -429.36068    0  102 -285.00000 -429.36068  50.7%     -    2s
     0     0 -425.58198    0  112 -285.00000 -425.58198  49.3%     -    3s
     0     0 -425.00000    0   66 -285.00000 -425.00000  49.1%     -    3s
     0     0 -425.00000    0   72 -285.00000 -425.00000  49.1%     -    3s
     0     0 -425.00000    0   71 -285.00000 -425.00000  49.1%     -    3s
H    0     0                    -290.0000000 -424.47059  46.4%     -    3s
H    0     0                    -315.0000000 -424.47059  34.8%     -    3s
     0     0 -424.47059    0   74 -315.00000 -424.47059  34.8%     -    3s
     0     0 -423.70749    0  106 -315.00000 -423.70749  34.5%     -    4s
     0     0 -422.82895    0  112 -315.00000 -422.82895  34.2%     -    4s
     0     0 -422.82895    0  111 -315.00000 -422.82895  34.2%     -    4s
     0     0 -422.50000    0   99 -315.00000 -422.50000  34.1%     -    4s
     0     0 -422.50000    0  109 -315.00000 -422.50000  34.1%     -    4s
     0     0 -421.25000    0  103 -315.00000 -421.25000  33.7%     -    4s
     0     0 -420.38462    0  118 -315.00000 -420.38462  33.5%     -    4s
     0     0 -420.38462    0  113 -315.00000 -420.38462  33.5%     -    4s
     0     0 -420.38462    0  105 -315.00000 -420.38462  33.5%     -    4s
     0     0 -419.58333    0   99 -315.00000 -419.58333  33.2%     -    4s
     0     0 -418.75000    0  105 -315.00000 -418.75000  32.9%     -    4s
     0     0 -418.75000    0  115 -315.00000 -418.75000  32.9%     -    4s
H    0     0                    -320.0000000 -417.15517  30.4%     -    4s
     0     0 -417.15517    0  116 -320.00000 -417.15517  30.4%     -    4s
     0     0 -417.15517    0  121 -320.00000 -417.15517  30.4%     -    4s
     0     0 -417.15517    0  109 -320.00000 -417.15517  30.4%     -    4s
     0     0 -417.15517    0  106 -320.00000 -417.15517  30.4%     -    4s
     0     0 -417.15517    0  104 -320.00000 -417.15517  30.4%     -    4s
     0     0 -417.15517    0  104 -320.00000 -417.15517  30.4%     -    4s
     0     2 -416.84211    0  104 -320.00000 -416.84211  30.3%     -    5s
H  403   191                    -340.0000000 -405.00000  19.1%   106    6s
H 2436   536                    -345.0000000 -384.21750  11.4%   100    9s
  2756   493 -359.78947   18   80 -345.00000 -379.98737  10.1%  99.3   10s

Cutting planes:
  Learned: 13
  Gomory: 14
  Cover: 97
  Implied bound: 25
  Clique: 11
  MIR: 91
  StrongCG: 16
  GUB cover: 10
  Inf proof: 17
  Zero half: 18
  Mod-K: 1
  RLT: 11
  Relax-and-lift: 34

Explored 4309 nodes (407327 simplex iterations) in 11.76 seconds (14.96 work units)
Thread count was 10 (of 64 available processors)

Solution count 10: -345 -340 -320 ... -20
No other solutions better than -345

Optimal solution found (tolerance 1.00e-04)
Best objective -3.450000000000e+02, best bound -3.450000000000e+02, gap 0.0000%

User-callback calls 9944, time in user-callback 0.02 sec
